1900829
3,66,64,51,28,50,24,93,16,25,78,77,72,94,56,85,38,13,39,11,58,89,23,18,10,21,83,91,80,6,44,86,98,67,59,36,62,71,84,88,90,43,60,34,14,42,27,45,81,15,57,1,96,17,76,29,19,20,12,73,46,8,32,0,69,47,35,87,41,26,63,4,2,7,52,9,55,74,82,49,30,31,95,92,61,48,68,40,5,54,79,75,37,33,70,53,97,22,65
